NAME : rand313276
COMMENT: random generated with id 313276
TYPE : TSP
DIMENSION : 6
EDGE_WEIGHT_TYPE : EUC_2D
NODE_COORD_SECTION
1 0.945571 4.056634
2 0.880125 3.952689
3 0.207283 0.789454
4 2.682273 0.709995
5 2.130851 2.758585
6 2.455785 4.792530
EOF
